% Logging successfully configured
%%%mzn-stat: initTime=0.043907993
%%%mzn-stat: objective=287
%%%mzn-stat: nodes=111622
%%%mzn-stat: restarts=0
%%%mzn-stat: peakDepth=2454
%%%mzn-stat: solveTime=303.934855268
%%%mzn-stat: variables=3316
%%%mzn-stat: propagators=2879
%%%mzn-stat: failures=95235
%%%mzn-stat: propagations=2246908
%%%mzn-stat: nogoods=95235
%%%mzn-stat: numAtomicConstraintsPropagated=0
%%%mzn-stat: allDifferentNumber1PropagationsTotal=329670
%%%mzn-stat: allDifferentNumber1PropagationsThatFoundConflict=75
%%%mzn-stat: allDifferentNumber1PropagationsThatPruned=214267
%%%mzn-stat: allDifferentNumber1TotalValuesPruned=460417
%%%mzn-stat: allDifferentNumber1TotalHallSetSizeConflict=250
%%%mzn-stat: allDifferentNumber1NumberOfConflicts=75
%%%mzn-stat: allDifferentNumber1MaxHallSetSizeConflict=11
%%%mzn-stat: allDifferentNumber1TotalPruningHallSetSize=701261
%%%mzn-stat: allDifferentNumber1NumberOfPruningExplanations=460417
%%%mzn-stat: allDifferentNumber1MaxPruningHallSetSize=29
%%%mzn-stat: allDifferentNumber1TotalFixedEdgesAtConflict=10349
%%%mzn-stat: allDifferentNumber1TotalVarsInvolvedInPruning=439855
%%%mzn-stat: allDifferentNumber1MaxValuesPrunedFromSingleVar=6
%%%mzn-stat: allDifferentNumber1TotalSccSizeAtPruning=443188
%%%mzn-stat: allDifferentNumber1NumberOfSccPruningCalls=214267
%%%mzn-stat: circuitNumber2PropagationsThatFoundConflict=94784
%%%mzn-stat: circuitNumber2TotalFixedEdgesAtConflict=13875523
%%%mzn-stat: circuitNumber2NumberOfConflicts=94784
%%%mzn-stat: circuitNumber2PropagationsThatPruned=15843
%%%mzn-stat: circuitNumber2PropagationsTotal=213725
%%%mzn-stat: AverageConflictSize=131.26810521341943
%%%mzn-stat: NumUnitNogoodsLearned=0
%%%mzn-stat: AverageLearnedNogoodLength=116.54439019268126
%%%mzn-stat: AverageBacktrackAmount=0
%%%mzn-stat: AverageLbd=111.08632330550743
%%%mzn-stat: 2AutonomousSearchNumBackupCalled=2332
%%%mzn-stat: 2AutonomousSearchNumPredicatesRemoved=0
%%%mzn-stat: 2AutonomousSearchNumCalls=2333
%%%mzn-stat: 2AutonomousSearchNumPredicatesAdded=3009
%%%mzn-stat: 2AutonomousSearchAverageSizeOfHeap=1.289755679382769
%%%mzn-stat: 2AutonomousSearchNumAssignedPredicatesEncountered=3009
%%%mzn-stat-end
maxleg = 287;
succ = array1d(1..150,[3, 12, 36, 8, 9, 32, 20, 21, 14, 22, 13, 1, 15, 18, 2, 11, 16, 19, 28, 23, 5, 26, 27, 4, 31, 35, 45, 25, 30, 33, 29, 7, 34, 57, 41, 49, 6, 24, 37, 48, 68, 46, 69, 38, 59, 39, 44, 17, 55, 53, 42, 65, 54, 51, 70, 40, 43, 56, 66, 50, 60, 58, 62, 10, 47, 85, 52, 95, 75, 73, 76, 77, 74, 82, 80, 84, 63, 67, 61, 90, 72, 93, 79, 106, 87, 92, 98, 78, 83, 94, 109, 137, 100, 120, 103, 88, 96, 64, 97, 104, 107, 116, 101, 111, 112, 110, 125, 81, 115, 113, 123, 121, 146, 71, 105, 128, 122, 119, 135, 138, 139, 129, 118, 108, 131, 91, 99, 147, 127, 124, 126, 134, 130, 142, 136, 102, 144, 86, 149, 89, 140, 143, 117, 148, 114, 132, 150, 133, 145, 141]);
% time elapsed: 316.91 s
----------
